Normalized Data/p01_23_normalized_splitx10_0.vrp
NAME:p01_23_NORMALIZED_splitx10_
BEST_KNOWN: 0
COMMENT: 0
DIMENSION: 203
CAPACITY: 1000
EDGE_WEIGHT_FORMAT: FUNCTION
EDGE_WEIGHT_TYPE: EXACT_2D
NODE_COORD_SECTION
1 0.00000 0.00000
2 -41 -37
3 -41 -37
4 -41 -37
5 -41 -37
6 -41 -37
7 -43 9
8 -43 9
9 -43 9
10 -43 9
11 -43 9
12 10 23
13 10 23
14 10 23
15 10 23
16 10 23
17 10 23
18 23 -33
19 23 -33
20 23 -33
21 23 -33
22 23 -33
23 13 -50
24 13 -50
25 13 -50
26 13 -50
27 13 -50
28 13 -50
29 -39 -25
30 -39 -25
31 -39 -25
32 25 29
33 25 29
34 25 29
35 25 29
36 3 1
37 3 1
38 3 1
39 3 1
40 -23 41
41 -23 41
42 -23 41
43 -23 41
44 -23 41
45 -43 13
46 -43 13
47 -43 13
48 -43 13
49 -43 13
50 -43 13
51 46 32
52 46 32
53 46 32
54 46 32
55 46 32
56 46 32
57 44 -44
58 44 -44
59 44 -44
60 44 -44
61 -7 -14
62 -7 -14
63 -7 -14
64 45 8
65 45 8
66 -22 -44
67 -22 -44
68 -35 37
69 -35 37
70 -35 37
71 -35 37
72 -35 37
73 -35 37
74 28 -30
75 28 -30
76 28 -30
77 28 -30
78 -34 34
79 -34 34
80 -34 34
81 35 -39
82 35 -39
83 35 -39
84 -3 26
85 -3 26
86 -3 26
87 -3 26
88 43 -20
89 43 -20
90 43 -20
91 45 -34
92 45 -34
93 44 -44
94 44 -44
95 44 -44
96 -33 -11
97 -33 -11
98 -33 -11
99 -33 -11
100 -33 -11
101 -33 -11
102 40 14
103 40 14
104 40 14
105 22 -5
106 22 -5
107 -2 -43
108 -2 -43
109 -2 -43
110 49 30
111 49 30
112 49 30
113 49 30
114 -34 1
115 -34 1
116 -39 -18
117 -39 -18
118 -39 -18
119 -39 -18
120 -48 7
121 -48 7
122 -48 7
123 -32 23
124 -32 23
125 -32 23
126 -32 23
127 -32 23
128 -18 -34
129 -18 -34
130 -18 -34
131 -18 -34
132 -18 -34
133 15 25
134 15 25
135 15 25
136 15 25
137 9 -19
138 9 -19
139 9 -19
140 9 -19
141 9 -19
142 -9 -45
143 -9 -45
144 -9 -45
145 -34 -34
146 -34 -34
147 -34 -34
148 -34 -34
149 -34 -34
150 37 30
151 37 30
152 37 30
153 37 30
154 -11 -15
155 -11 -15
156 -11 -15
157 -7 39
158 -7 39
159 -7 39
160 -7 39
161 44 -12
162 44 -12
163 46 12
164 46 12
165 46 12
166 46 12
167 46 12
168 46 12
169 46 12
170 28 0
171 28 0
172 28 0
173 42 37
174 42 37
175 42 37
176 42 37
177 42 37
178 42 37
179 33 -4
180 33 -4
181 -47 13
182 -47 13
183 -47 13
184 -47 13
185 -47 13
186 -47 13
187 19 -26
188 19 -26
189 19 -26
190 19 -26
191 19 -26
192 -27 32
193 -27 32
194 -27 32
195 -27 32
196 21 33
197 21 33
198 21 33
199 0 2
200 0 2
201 0 2
202 0 2
203 0 2
DEMAND_SECTION
1 0
2 100
3 50
4 10
5 10
6 10
7 200
8 50
9 10
10 10
11 10
12 200
13 200
14 50
15 10
16 10
17 10
18 200
19 10
20 10
21 10
22 10
23 200
24 200
25 50
26 10
27 10
28 10
29 200
30 200
31 50
32 200
33 100
34 50
35 10
36 200
37 10
38 10
39 10
40 200
41 50
42 10
43 10
44 10
45 200
46 100
47 10
48 10
49 10
50 10
51 200
52 200
53 50
54 10
55 10
56 10
57 200
58 10
59 10
60 10
61 200
62 100
63 50
64 100
65 50
66 200
67 10
68 200
69 50
70 10
71 10
72 10
73 10
74 200
75 10
76 10
77 10
78 200
79 10
80 10
81 100
82 10
83 10
84 200
85 200
86 10
87 10
88 200
89 50
90 10
91 200
92 10
93 100
94 10
95 10
96 200
97 50
98 10
99 10
100 10
101 10
102 100
103 50
104 10
105 200
106 10
107 200
108 100
109 10
110 200
111 100
112 10
113 10
114 200
115 100
116 200
117 10
118 10
119 10
120 200
121 100
122 50
123 200
124 50
125 10
126 10
127 10
128 200
129 100
130 10
131 10
132 10
133 200
134 100
135 10
136 10
137 100
138 50
139 10
140 10
141 10
142 200
143 100
144 10
145 100
146 50
147 10
148 10
149 10
150 100
151 10
152 10
153 10
154 200
155 50
156 10
157 200
158 100
159 10
160 10
161 200
162 50
163 200
164 100
165 50
166 10
167 10
168 10
169 10
170 200
171 100
172 10
173 200
174 50
175 10
176 10
177 10
178 10
179 200
180 50
181 200
182 200
183 10
184 10
185 10
186 10
187 200
188 100
189 10
190 10
191 10
192 200
193 200
194 10
195 10
196 100
197 50
198 10
199 200
200 50
201 10
202 10
203 10
DEPOT_SECTION
1
-1
EOF