Normalized Data/p01_23_normalized_splitx10_0.sol
202 -16 11 14 12 15 13 132 134 133 135 -22 24 27 25 26 23 106 107 108 141 143 -29 28 30 116 115 118 117 98 97 96 95 99 100 -33 32 34 31 150 152 149 151 176 175 174 173 172 177 196 197 195 -38 36 37 35 170 169 171 179 178 104 105 -40 39 43 159 156 157 158 84 85 86 83 -42 41 68 71 70 69 72 67 77 79 78 194 192 193 191 -50 51 53 52 54 55 109 112 111 110 -62 60 61 153 155 154 -76 75 74 73 21 17 20 18 19 188 189 187 190 186 137 139 140 136 138 -81 82 80 94 58 56 57 59 92 93 90 91 89 88 87 -102 101 103 162 165 163 168 166 167 164 63 64 160 161 -113 121 120 119 183 184 182 180 181 185 -114 10 8 9 7 6 48 49 47 45 44 46 124 125 126 123 122 -131 127 130 128 129 145 146 147 144 148 3 4 2 1 5 65 66 142 -198 200 199 201 202 0 





OBJ=
1530.927
BEST_KNOWN=
0.000